NAME: random-6-20727
TYPE: TSP
COMMENT: size=6 seed=20727
DIMENSION: 14
EDGE_WEIGHT_TYPE: EUC_2D
NODE_COORD_SECTION
+0 689 301
-0 689 301
+1 936 658
-1 663 16
+2 908 112
-2 524 0
+3 403 282
-3 673 268
+4 959 110
-4 971 829
+5 790 465
-5 514 744
+6 34 404
-6 791 315
PRECEDENCE_SECTION
+0 -0
+1 -1
+2 -2
+3 -3
+4 -4
+5 -5
+6 -6
EOF
